
50
13946

429 329
1084 984
1060 960
1019 919
890 790
976 876
101 1
727 627
348 248
831 731
533 433
661 561
643 543
677 577
928 828
1082 982
446 346
907 807
990 890
493 393
224 124
598 498
865 765
625 525
285 185
806 706
425 325
987 887
269 169
694 594
486 386
1085 985
239 139
981 881
518 418
472 372
309 209
595 495
1030 930
1100 1000
1040 940
712 612
337 237
608 508
750 650
396 296
1087 987
185 85
335 235
304 204
